(set-option :print-success false)
(set-logic QF_UF)
(declare-sort x112 0)
(declare-sort x71 0)
(declare-fun x37 () x71)
(declare-fun x97 (x71 x71) x71)
(declare-fun x98 () x71)
(declare-fun x74 () x71)
(declare-fun x29 () x71)
(declare-fun x20 (x71 x71) x71)
(declare-fun x95 () x71)
(assert (let ((x7 (x20 x74 x98)) (x65 (x20 x37 x74)) (x18 (x20 x98 x74)) (x154 (x20 x74 x95)) (x157 (x20 x29 x37)) (x50 (x20 x95 x37)) (x19 (not (= x95 (x20 x95 x95)))) (x129 (x20 x74 x29)) (x121 (x20 x98 x37)) (x151 (x20 x37 x98)) (x107 (not (= x98 (x20 x98 x98)))) (x86 (x20 x37 x29)) (x88 (not (= x37 (x20 x37 x37)))) (x2 (x20 x95 x74)) (x92 (x20 x37 x95)) (x125 (x20 x29 x95)) (x68 (x20 x29 x98)) (x48 (x20 x29 x74)) (x4 (x20 x95 x98)) (x61 (x20 x98 x29)) (x145 (not (= (x20 x74 x74) x74))) (x72 (x20 x98 x95)) (x78 (x20 x74 x37)) (x119 (x20 x95 x29)) (x80 (not (= (x20 x29 x29) x29)))) (or (and (and (and (not (= x37 x50)) (and (not (= x98 x4)) (and (not (= x2 x74)) (not (= x29 x119))))) x19) (and x19 (and (and (and (not (= x125 x29)) (not (= x74 x154))) (not (= x72 x98))) (not (= x92 x37))))) (or (and (and (not (= x92 x95)) (and x88 (and (not (= x98 x151)) (and (not (= x86 x29)) (not (= x74 x65)))))) (and (and x88 (and (and (not (= x74 x78)) (not (= x157 x29))) (not (= x121 x98)))) (not (= x95 x50)))) (or (and (and (and (and x107 (and (not (= x61 x29)) (not (= x18 x74)))) (not (= x37 x121))) (not (= x95 x72))) (and (and (not (= x37 x151)) (and x107 (and (not (= x29 x68)) (not (= x74 x7))))) (not (= x4 x95)))) (or (and (and (not (= x95 x119)) (and (not (= x86 x37)) (and (and (not (= x129 x74)) x80) (not (= x61 x98))))) (and (and (not (= x37 x157)) (and (and (not (= x74 x48)) x80) (not (= x68 x98)))) (not (= x95 x125)))) (and (and (not (= x95 x154)) (and (and (not (= x7 x98)) (and x145 (not (= x129 x29)))) (not (= x78 x37)))) (and (not (= x95 x2)) (and (not (= x65 x37)) (and (not (= x98 x18)) (and x145 (not (= x48 x29)))))))))))))
(assert (or (or (and (not (= (x20 (x20 x37 x95) x37) x95)) (and (not (= x37 (x20 (x20 x37 x37) x37))) (and (and (not (= x29 (x20 (x20 x37 x29) x37))) (not (= (x20 (x20 x37 x74) x37) x74))) (not (= (x20 (x20 x37 x98) x37) x98))))) (or (and (not (= x95 (x20 (x20 x98 x95) x98))) (and (not (= x37 (x20 (x20 x98 x37) x98))) (and (and (not (= x29 (x20 (x20 x98 x29) x98))) (not (= x74 (x20 (x20 x98 x74) x98)))) (not (= x98 (x20 (x20 x98 x98) x98)))))) (or (and (and (not (= x37 (x20 (x20 x74 x37) x74))) (and (and (not (= (x20 (x20 x74 x74) x74) x74)) (not (= x29 (x20 (x20 x74 x29) x74)))) (not (= (x20 (x20 x74 x98) x74) x98)))) (not (= x95 (x20 (x20 x74 x95) x74)))) (and (and (not (= (x20 (x20 x29 x37) x29) x37)) (and (and (not (= (x20 (x20 x29 x29) x29) x29)) (not (= (x20 (x20 x29 x74) x29) x74))) (not (= x98 (x20 (x20 x29 x98) x29))))) (not (= x95 (x20 (x20 x29 x95) x29))))))) (and (not (= (x20 (x20 x95 x95) x95) x95)) (and (and (not (= x98 (x20 (x20 x95 x98) x95))) (and (not (= x29 (x20 (x20 x95 x29) x95))) (not (= x74 (x20 (x20 x95 x74) x95))))) (not (= (x20 (x20 x95 x37) x95) x37))))))
(assert (let ((x119 (x20 x29 x95)) (x48 (x20 x74 x29)) (x92 (x20 x95 x37)) (x145 (x20 x37 x29)) (x4 (x20 x98 x95)) (x18 (x20 x98 x74)) (x129 (x20 x98 x29)) (x107 (x20 x37 x74)) (x157 (x20 x95 x74)) (x2 (x20 x74 x95)) (x121 (x20 x74 x98)) (x125 (x20 x74 x37)) (x154 (x20 x98 x37)) (x86 (x20 x98 x98)) (x78 (x20 x29 x98)) (x61 (x20 x74 x74)) (x50 (x20 x37 x95)) (x19 (x20 x95 x95)) (x80 (x20 x29 x29)) (x65 (x20 x37 x98)) (x88 (x20 x29 x37)) (x72 (x20 x37 x37)) (x151 (x20 x95 x98)) (x7 (x20 x29 x74)) (x68 (x20 x95 x29))) (or (and (not (= x19 (x20 x19 x95))) (and (not (= (x20 x50 x37) x50)) (and (not (= x4 (x20 x4 x98))) (and (not (= (x20 x119 x29) x119)) (not (= (x20 x2 x74) x2)))))) (or (or (or (and (not (= x157 (x20 x157 x95))) (and (and (and (not (= x61 (x20 x61 x74))) (not (= x7 (x20 x7 x29)))) (not (= (x20 x18 x98) x18))) (not (= (x20 x107 x37) x107)))) (and (and (and (and (not (= x80 (x20 x80 x29))) (not (= x48 (x20 x48 x74)))) (not (= (x20 x129 x98) x129))) (not (= x145 (x20 x145 x37)))) (not (= x68 (x20 x68 x95))))) (and (not (= x151 (x20 x151 x95))) (and (and (and (not (= (x20 x121 x74) x121)) (not (= x78 (x20 x78 x29)))) (not (= x86 (x20 x86 x98)))) (not (= (x20 x65 x37) x65))))) (and (and (and (not (= x154 (x20 x154 x98))) (and (not (= (x20 x125 x74) x125)) (not (= x88 (x20 x88 x29))))) (not (= x72 (x20 x72 x37)))) (not (= (x20 x92 x95) x92)))))))
(assert (let ((x121 (x20 x98 x74)) (x154 (x20 x37 x98)) (x18 (x20 x74 x98)) (x125 (x20 x37 x74)) (x92 (x20 x37 x95)) (x68 (x20 x29 x95)) (x157 (x20 x74 x95)) (x86 (x20 x98 x98)) (x119 (x20 x95 x29)) (x78 (x20 x98 x29)) (x145 (x20 x29 x37)) (x65 (x20 x98 x37)) (x72 (x20 x37 x37)) (x2 (x20 x95 x74)) (x88 (x20 x37 x29)) (x50 (x20 x95 x37)) (x151 (x20 x98 x95)) (x80 (x20 x29 x29)) (x7 (x20 x74 x29)) (x107 (x20 x74 x37)) (x4 (x20 x95 x98)) (x129 (x20 x29 x98)) (x61 (x20 x74 x74)) (x48 (x20 x29 x74)) (x19 (x20 x95 x95))) (and (and (and (and (and (and (and (and (or (or (or (= x80 x98) (or (= x80 x74) (= x80 x29))) (= x37 x80)) (= x80 x95)) (or (= x48 x95) (or (= x37 x48) (or (= x48 x98) (or (= x48 x29) (= x74 x48)))))) (or (or (or (= x129 x98) (or (= x129 x74) (= x29 x129))) (= x37 x129)) (= x95 x129))) (or (or (or (= x98 x145) (or (= x145 x29) (= x145 x74))) (= x145 x37)) (= x145 x95))) (or (= x68 x95) (or (or (= x98 x68) (or (= x74 x68) (= x29 x68))) (= x68 x37)))) (and (or (= x157 x95) (or (= x37 x157) (or (or (= x157 x74) (= x157 x29)) (= x98 x157)))) (and (and (or (or (= x37 x18) (or (= x98 x18) (or (= x18 x74) (= x29 x18)))) (= x95 x18)) (and (or (= x95 x61) (or (= x37 x61) (or (= x98 x61) (or (= x61 x29) (= x61 x74))))) (or (= x7 x95) (or (= x7 x37) (or (= x7 x98) (or (= x7 x29) (= x74 x7))))))) (or (or (= x37 x107) (or (= x98 x107) (or (= x74 x107) (= x29 x107)))) (= x107 x95))))) (and (or (or (or (= x98 x151) (or (= x29 x151) (= x151 x74))) (= x151 x37)) (= x95 x151)) (and (or (= x65 x95) (or (= x37 x65) (or (= x65 x98) (or (= x74 x65) (= x29 x65))))) (and (or (or (= x37 x86) (or (or (= x86 x74) (= x29 x86)) (= x86 x98))) (= x86 x95)) (and (or (or (or (or (= x121 x74) (= x121 x29)) (= x98 x121)) (= x121 x37)) (= x95 x121)) (or (= x95 x78) (or (or (= x78 x98) (or (= x74 x78) (= x78 x29))) (= x37 x78)))))))) (and (and (and (and (or (or (= x37 x125) (or (= x98 x125) (or (= x125 x29) (= x74 x125)))) (= x125 x95)) (or (or (= x37 x88) (or (= x88 x98) (or (= x88 x29) (= x88 x74)))) (= x95 x88))) (or (= x154 x95) (or (= x154 x37) (or (or (= x154 x74) (= x29 x154)) (= x98 x154))))) (or (= x72 x95) (or (or (or (= x72 x74) (= x72 x29)) (= x98 x72)) (= x72 x37)))) (or (= x92 x95) (or (or (= x98 x92) (or (= x92 x29) (= x74 x92))) (= x37 x92))))) (and (and (and (or (or (or (= x98 x4) (or (= x74 x4) (= x29 x4))) (= x37 x4)) (= x95 x4)) (and (or (or (= x37 x119) (or (= x119 x98) (or (= x119 x29) (= x119 x74)))) (= x95 x119)) (or (or (= x37 x2) (or (or (= x2 x29) (= x74 x2)) (= x98 x2))) (= x95 x2)))) (or (= x50 x95) (or (= x37 x50) (or (= x50 x98) (or (= x74 x50) (= x29 x50)))))) (or (= x19 x95) (or (or (or (= x74 x19) (= x19 x29)) (= x19 x98)) (= x37 x19)))))))
(assert (and (and (and (= x29 (x20 x95 x95)) (= (x20 x29 x95) x74)) (= x98 (x20 x74 x29))) (= (x20 x74 x98) x37)))
(assert (or (or (and (not (= (x20 x37 (x20 x37 x95)) x95)) (and (and (not (= (x20 x37 (x20 x37 x98)) x98)) (and (not (= (x20 x37 (x20 x37 x29)) x29)) (not (= x74 (x20 x37 (x20 x37 x74)))))) (not (= x37 (x20 x37 (x20 x37 x37)))))) (or (or (and (and (and (and (not (= x29 (x20 x29 (x20 x29 x29)))) (not (= x74 (x20 x29 (x20 x29 x74))))) (not (= (x20 x29 (x20 x29 x98)) x98))) (not (= x37 (x20 x29 (x20 x29 x37))))) (not (= (x20 x29 (x20 x29 x95)) x95))) (and (and (not (= x37 (x20 x74 (x20 x74 x37)))) (and (not (= x98 (x20 x74 (x20 x74 x98)))) (and (not (= x74 (x20 x74 (x20 x74 x74)))) (not (= x29 (x20 x74 (x20 x74 x29))))))) (not (= x95 (x20 x74 (x20 x74 x95)))))) (and (and (and (and (not (= (x20 x98 (x20 x98 x74)) x74)) (not (= (x20 x98 (x20 x98 x29)) x29))) (not (= x98 (x20 x98 (x20 x98 x98))))) (not (= x37 (x20 x98 (x20 x98 x37))))) (not (= x95 (x20 x98 (x20 x98 x95))))))) (and (not (= x95 (x20 x95 (x20 x95 x95)))) (and (not (= (x20 x95 (x20 x95 x37)) x37)) (and (and (not (= x74 (x20 x95 (x20 x95 x74)))) (not (= (x20 x95 (x20 x95 x29)) x29))) (not (= x98 (x20 x95 (x20 x95 x98)))))))))
(assert (let ((x80 (x20 x29 x29)) (x65 (x20 x37 x98)) (x107 (x20 x98 x98)) (x19 (x20 x95 x95)) (x121 (x20 x37 x74)) (x86 (x20 x74 x37)) (x145 (x20 x74 x74)) (x48 (x20 x74 x29)) (x151 (x20 x98 x37)) (x68 (x20 x98 x29)) (x88 (x20 x37 x37)) (x154 (x20 x29 x95)) (x61 (x20 x98 x74)) (x50 (x20 x37 x95)) (x157 (x20 x37 x29)) (x72 (x20 x95 x74)) (x4 (x20 x95 x37)) (x78 (x20 x29 x37)) (x129 (x20 x29 x74)) (x18 (x20 x74 x98)) (x92 (x20 x74 x95)) (x125 (x20 x95 x29)) (x2 (x20 x98 x95)) (x119 (x20 x95 x98)) (x7 (x20 x29 x98))) (and (and (and (or (or (or (not (= x107 x107)) (or (not (= x7 x68)) (not (= x61 x18)))) (not (= x151 x65))) (not (= x119 x2))) (and (or (not (= x125 x154)) (or (not (= x78 x157)) (or (or (not (= x80 x80)) (not (= x48 x129))) (not (= x7 x68))))) (or (or (not (= x86 x121)) (or (or (not (= x145 x145)) (not (= x48 x129))) (not (= x18 x61)))) (not (= x72 x92))))) (or (or (or (or (not (= x78 x157)) (not (= x121 x86))) (not (= x65 x151))) (not (= x88 x88))) (not (= x4 x50)))) (or (not (= x19 x19)) (or (or (not (= x119 x2)) (or (not (= x92 x72)) (not (= x125 x154)))) (not (= x4 x50)))))))
(assert (and (and (and (or (= (x20 x95 (x20 x98 x95)) x98) (or (= x98 (x20 x37 (x20 x98 x37))) (or (or (= (x20 x29 (x20 x98 x29)) x98) (= (x20 x74 (x20 x98 x74)) x98)) (= x98 (x20 x98 (x20 x98 x98)))))) (and (or (or (or (= (x20 x98 (x20 x74 x98)) x74) (or (= (x20 x29 (x20 x74 x29)) x74) (= (x20 x74 (x20 x74 x74)) x74))) (= x74 (x20 x37 (x20 x74 x37)))) (= x74 (x20 x95 (x20 x74 x95)))) (or (= x29 (x20 x95 (x20 x29 x95))) (or (or (= (x20 x98 (x20 x29 x98)) x29) (or (= x29 (x20 x29 (x20 x29 x29))) (= x29 (x20 x74 (x20 x29 x74))))) (= (x20 x37 (x20 x29 x37)) x29))))) (or (or (= x37 (x20 x37 (x20 x37 x37))) (or (= x37 (x20 x98 (x20 x37 x98))) (or (= (x20 x74 (x20 x37 x74)) x37) (= x37 (x20 x29 (x20 x37 x29)))))) (= (x20 x95 (x20 x37 x95)) x37))) (or (= x95 (x20 x95 (x20 x95 x95))) (or (= (x20 x37 (x20 x95 x37)) x95) (or (or (= (x20 x74 (x20 x95 x74)) x95) (= x95 (x20 x29 (x20 x95 x29)))) (= (x20 x98 (x20 x95 x98)) x95))))))
(assert (and (and (and (and (not (= x74 x95)) (and (not (= x74 x37)) (and (not (= x74 x98)) (and (and (not (= x29 x37)) (and (not (= x29 x74)) (not (= x98 x29)))) (not (= x95 x29)))))) (not (= x98 x37))) (not (= x95 x98))) (not (= x37 x95))))
(assert (not (and (= x29 (x20 x95 x95)) (and (= (x20 x95 x37) x74) (and (and (= (x20 x95 x74) x37) (and (= (x20 x95 x29) x95) (and (= x37 (x20 x37 x95)) (and (= x95 (x20 x37 x37)) (and (and (and (= (x20 x37 x29) x74) (and (= x98 (x20 x98 x95)) (and (= (x20 x98 x37) x37) (and (= x74 (x20 x98 x98)) (and (and (and (= (x20 x74 x95) x95) (and (and (= (x20 x74 x98) x37) (and (= (x20 x74 x74) x74) (and (and (and (and (and (= (x20 x29 x74) x29) (= (x20 x29 x29) x37)) (= x95 (x20 x29 x98))) (= x98 (x20 x29 x37))) (= (x20 x29 x95) x74)) (= (x20 x74 x29) x98)))) (= x29 (x20 x74 x37)))) (= x29 (x20 x98 x29))) (= (x20 x98 x74) x95)))))) (= (x20 x37 x74) x98)) (= (x20 x37 x98) x29)))))) (= (x20 x95 x98) x98))))))
(assert (let ((x145 (x20 x37 x37)) (x68 (x20 x95 x95)) (x129 (x20 x98 x98)) (x48 (x20 x74 x74)) (x80 (x20 x29 x29))) (or (and (not (= x95 x68)) (and (not (= x145 x95)) (and (and (not (= x80 x95)) (not (= x95 x48))) (not (= x95 x129))))) (or (or (and (not (= x98 x68)) (and (and (and (not (= x98 x80)) (not (= x48 x98))) (not (= x98 x129))) (not (= x98 x145)))) (or (and (not (= x68 x74)) (and (and (not (= x129 x74)) (and (not (= x48 x74)) (not (= x74 x80)))) (not (= x145 x74)))) (and (and (and (not (= x29 x129)) (and (not (= x29 x80)) (not (= x48 x29)))) (not (= x145 x29))) (not (= x29 x68))))) (and (not (= x37 x68)) (and (not (= x145 x37)) (and (not (= x37 x129)) (and (not (= x80 x37)) (not (= x37 x48))))))))))
(assert (let ((x2 (x20 x74 x95)) (x70 (x20 x95 x74)) (x85 (x20 x95 x37)) (x41 (x20 x95 x95)) (x68 (x20 x29 x37)) (x7 (x20 x29 x95)) (x94 (x20 x98 x98)) (x107 (x20 x98 x29)) (x129 (x20 x29 x74)) (x92 (x20 x74 x98)) (x48 (x20 x29 x29)) (x119 (x20 x74 x37)) (x145 (x20 x29 x98)) (x157 (x20 x37 x29)) (x54 (x20 x37 x37)) (x40 (x20 x37 x95)) (x159 (x20 x37 x98)) (x132 (x20 x95 x98)) (x87 (x20 x98 x95)) (x18 (x20 x74 x29)) (x78 (x20 x95 x29)) (x111 (x20 x37 x74)) (x72 (x20 x74 x74)) (x93 (x20 x98 x37)) (x19 (x20 x98 x74))) (let ((x118 (= x37 x72)) (x131 (= x95 x93)) (x6 (= x37 x94)) (x69 (= x95 x129)) (x88 (= x129 x29)) (x113 (= x78 x95)) (x153 (= x2 x98)) (x127 (= x29 x92)) (x11 (= x107 x98)) (x114 (= x111 x29)) (x103 (= x2 x37)) (x28 (= x74 x41)) (x102 (= x29 x40)) (x47 (= x87 x98)) (x76 (= x157 x74)) (x82 (= x37 x92)) (x147 (= x37 x93)) (x34 (= x37 x132)) (x13 (= x95 x54)) (x60 (= x98 x40)) (x32 (= x74 x54)) (x83 (= x74 x94)) (x106 (= x95 x119)) (x23 (= x37 x87)) (x56 (= x92 x74)) (x96 (= x93 x74)) (x22 (= x74 x85)) (x133 (= x74 x2)) (x67 (= x119 x98)) (x50 (= x72 x74)) (x150 (= x68 x29)) (x44 (= x87 x29)) (x1 (= x98 x72)) (x126 (= x119 x37)) (x36 (= x111 x37)) (x108 (= x7 x37)) (x45 (= x19 x95)) (x17 (= x29 x159)) (x101 (= x145 x29)) (x49 (= x74 x132)) (x66 (= x93 x29)) (x143 (= x40 x74)) (x80 (= x29 x48)) (x77 (= x70 x74)) (x146 (= x40 x95)) (x137 (= x7 x74)) (x63 (= x29 x41)) (x53 (= x29 x107)) (x152 (= x37 x19)) (x148 (= x70 x95)) (x14 (= x92 x95)) (x136 (= x74 x87)) (x117 (= x98 x145)) (x31 (= x94 x95)) (x12 (= x98 x159)) (x30 (= x54 x98)) (x140 (= x37 x54)) (x151 (= x18 x29)) (x155 (= x37 x68)) (x52 (= x93 x98)) (x125 (= x72 x29)) (x9 (= x132 x29)) (x64 (= x92 x98)) (x141 (= x78 x74)) (x39 (= x19 x29)) (x73 (= x129 x98)) (x134 (= x29 x54)) (x58 (= x111 x98)) (x121 (= x48 x98)) (x135 (= x2 x95)) (x139 (= x145 x95)) (x35 (= x37 x41)) (x86 (= x37 x48)) (x24 (= x68 x98)) (x55 (= x29 x78)) (x51 (= x157 x37)) (x33 (= x98 x70)) (x21 (= x85 x29)) (x4 (= x74 x129)) (x142 (= x29 x119)) (x3 (= x111 x74)) (x100 (= x37 x159)) (x75 (= x98 x18)) (x144 (= x98 x157)) (x27 (= x70 x37)) (x57 (= x159 x95)) (x65 (= x95 x48)) (x128 (= x29 x70)) (x15 (= x95 x157)) (x115 (= x85 x98)) (x105 (= x95 x87)) (x122 (= x37 x78)) (x8 (= x74 x19)) (x104 (= x98 x7)) (x99 (= x107 x74)) (x110 (= x94 x29)) (x149 (= x7 x95)) (x26 (= x145 x74)) (x109 (= x107 x37)) (x61 (= x74 x48)) (x120 (= x2 x29)) (x138 (= x145 x37)) (x25 (= x95 x18)) (x116 (= x29 x7)) (x81 (= x94 x98)) (x10 (= x95 x111)) (x123 (= x74 x159)) (x5 (= x68 x74)) (x84 (= x85 x37)) (x90 (= x95 x41)) (x89 (= x95 x85)) (x46 (= x41 x98)) (x130 (= x37 x18)) (x43 (= x98 x78)) (x42 (= x98 x132)) (x91 (= x37 x40)) (x154 (= x74 x18)) (x59 (= x19 x98)) (x16 (= x72 x95)) (x158 (= x95 x132)) (x38 (= x107 x95)) (x156 (= x29 x157)) (x62 (= x68 x95)) (x124 (= x119 x74)) (x79 (= x129 x37))) (and (and (and (and (and (and (and (or (or (or x109 (or x130 x86)) x51) x122) (or (or (or x138 (or x79 x86)) x155) x108)) (and (and (or (or x24 (or (or x73 x121) x117)) x104) (or (or x144 (or (or x121 x75) x11)) x43)) (and (and (or x137 (or x5 (or (or x61 x4) x26))) (or (or (or (or x61 x154) x99) x76) x141)) (and (or (or x156 (or x53 (or x151 x80))) x55) (or (or x150 (or (or x88 x80) x101)) x116))))) (and (or (or (or x139 (or x65 x69)) x62) x149) (or (or x15 (or (or x25 x65) x38)) x113))) (and (and (or (or x106 (or x14 (or x16 x25))) x135) (or (or (or (or x69 x16) x45) x10) x148)) (and (and (and (or (or x58 (or (or x1 x73) x59)) x33) (or (or (or (or x1 x75) x64) x67) x153)) (and (and (or (or (or x39 (or x88 x125)) x114) x128) (or (or (or x127 (or x151 x125)) x142) x120)) (and (or x133 (or x124 (or x56 (or x50 x154)))) (or x77 (or (or x8 (or x50 x4)) x3))))) (and (or x103 (or x126 (or (or x130 x118) x82))) (or x27 (or (or (or x118 x79) x152) x36)))))) (and (and (or (or (or x31 (or x14 x139)) x57) x158) (or (or x131 (or (or x45 x38) x31)) x105)) (and (and (and (and (or (or x123 (or (or x26 x56) x83)) x49) (or (or (or x83 (or x99 x8)) x96) x136)) (and (or x9 (or (or (or x101 x127) x110) x17)) (or (or (or (or x39 x53) x110) x66) x44))) (and (or x47 (or (or (or x59 x11) x81) x52)) (or (or x12 (or (or x117 x64) x81)) x42))) (and (or (or (or (or x138 x82) x6) x100) x34) (or (or (or x6 (or x109 x152)) x147) x23))))) (and (and (or (or (or x57 (or x10 x15)) x13) x146) (or x89 (or x13 (or (or x62 x106) x131)))) (and (and (and (or x60 (or x30 (or x12 (or x58 x144)))) (or (or (or x52 (or x24 x67)) x30) x115)) (and (and (or x143 (or x32 (or (or x76 x3) x123))) (or (or x32 (or x96 (or x124 x5))) x22)) (and (or x102 (or x134 (or x17 (or x156 x114)))) (or x21 (or (or x66 (or x150 x142)) x134))))) (and (or (or (or x100 (or x36 x51)) x140) x91) (or x84 (or x140 (or x147 (or x155 x126)))))))) (and (and (or x90 (or (or (or x135 x149) x105) x146)) (or x90 (or x89 (or (or x113 x148) x158)))) (and (and (or (or (or (or x122 x27) x34) x84) x35) (or x35 (or x91 (or (or x108 x103) x23)))) (and (and (or x46 (or (or (or x153 x104) x47) x60)) (or (or (or (or x33 x43) x42) x115) x46)) (and (and (or x63 (or (or (or x116 x120) x44) x102)) (or x63 (or (or x9 (or x128 x55)) x21))) (and (or (or (or (or x133 x137) x136) x143) x28) (or (or x22 (or x49 (or x141 x77))) x28))))))))))
(assert (let ((x110 (x20 x98 x74)) (x93 (x20 x95 x74)) (x75 (x20 x29 x74)) (x14 (x20 x95 x37)) (x130 (x20 x98 x29)) (x39 (x20 x74 x74)) (x117 (x20 x98 x95)) (x25 (x20 x29 x95)) (x73 (x20 x74 x29)) (x76 (x20 x95 x95)) (x1 (x20 x29 x98)) (x139 (x20 x37 x95)) (x99 (x20 x74 x37)) (x111 (x20 x29 x29)) (x127 (x20 x74 x98)) (x8 (x20 x37 x74)) (x118 (x20 x37 x29)) (x59 (x20 x37 x98)) (x11 (x20 x98 x37)) (x79 (x20 x29 x37)) (x38 (x20 x37 x37)) (x94 (x20 x74 x95)) (x69 (x20 x95 x29)) (x159 (x20 x98 x98)) (x64 (x20 x95 x98))) (let ((x10 (= x98 x139)) (x9 (= x37 x110)) (x57 (= x76 x98)) (x48 (= x73 x29)) (x63 (= x37 x99)) (x54 (= x73 x98)) (x83 (= x127 x74)) (x103 (= x99 x95)) (x107 (= x29 x159)) (x82 (= x74 x59)) (x113 (= x95 x69)) (x43 (= x37 x139)) (x6 (= x11 x74)) (x105 (= x95 x14)) (x114 (= x74 x93)) (x67 (= x99 x98)) (x96 (= x1 x98)) (x91 (= x95 x11)) (x36 (= x98 x69)) (x151 (= x29 x11)) (x3 (= x74 x76)) (x123 (= x98 x111)) (x146 (= x139 x95)) (x152 (= x8 x74)) (x142 (= x117 x74)) (x30 (= x98 x11)) (x100 (= x25 x98)) (x153 (= x39 x95)) (x135 (= x95 x117)) (x134 (= x139 x74)) (x156 (= x74 x25)) (x147 (= x64 x98)) (x22 (= x37 x69)) (x72 (= x29 x93)) (x132 (= x74 x159)) (x122 (= x95 x127)) (x86 (= x99 x29)) (x158 (= x95 x93)) (x2 (= x117 x29)) (x4 (= x14 x29)) (x65 (= x29 x59)) (x47 (= x95 x130)) (x44 (= x79 x37)) (x80 (= x29 x111)) (x21 (= x37 x127)) (x51 (= x38 x98)) (x140 (= x117 x98)) (x56 (= x74 x110)) (x42 (= x111 x95)) (x116 (= x159 x37)) (x88 (= x38 x29)) (x31 (= x74 x69)) (x27 (= x95 x159)) (x89 (= x94 x95)) (x106 (= x73 x37)) (x66 (= x74 x14)) (x77 (= x37 x11)) (x53 (= x75 x74)) (x104 (= x75 x95)) (x5 (= x98 x39)) (x52 (= x98 x59)) (x141 (= x37 x59)) (x55 (= x130 x37)) (x70 (= x111 x74)) (x131 (= x37 x75)) (x85 (= x98 x127)) (x155 (= x93 x98)) (x145 (= x29 x39)) (x58 (= x118 x98)) (x28 (= x14 x37)) (x150 (= x64 x74)) (x128 (= x37 x1)) (x102 (= x37 x8)) (x129 (= x29 x75)) (x87 (= x74 x130)) (x108 (= x8 x95)) (x40 (= x98 x75)) (x148 (= x95 x25)) (x126 (= x94 x98)) (x26 (= x74 x1)) (x35 (= x95 x38)) (x78 (= x79 x29)) (x46 (= x110 x95)) (x50 (= x29 x139)) (x15 (= x14 x98)) (x41 (= x25 x37)) (x120 (= x118 x37)) (x16 (= x73 x74)) (x157 (= x29 x118)) (x81 (= x118 x74)) (x34 (= x118 x95)) (x23 (= x59 x95)) (x154 (= x25 x29)) (x125 (= x29 x69)) (x138 (= x99 x74)) (x62 (= x111 x37)) (x121 (= x8 x29)) (x19 (= x29 x76)) (x45 (= x38 x74)) (x149 (= x95 x64)) (x32 (= x110 x98)) (x84 (= x79 x95)) (x124 (= x130 x98)) (x144 (= x98 x159)) (x12 (= x79 x98)) (x133 (= x37 x94)) (x137 (= x93 x37)) (x49 (= x37 x38)) (x90 (= x95 x76)) (x92 (= x29 x94)) (x119 (= x64 x29)) (x143 (= x117 x37)) (x101 (= x74 x39)) (x17 (= x94 x74)) (x13 (= x37 x39)) (x68 (= x130 x29)) (x24 (= x98 x8)) (x136 (= x64 x37)) (x109 (= x79 x74)) (x33 (= x37 x76)) (x7 (= x1 x29)) (x60 (= x95 x1)) (x115 (= x95 x73)) (x61 (= x110 x29)) (x18 (= x127 x29))) (and (and (and (and (or (or (and (not x3) x3) (or (or (or (and (not x17) x114) (and x31 (not x156))) (and (not x142) x150)) (and (not x134) x66))) (or (or (and x134 (not x66)) (or (and (not x45) x45) (or (or (and x152 (not x138)) (and x81 (not x109))) (and (not x6) x82)))) (or (or (or (and x156 (not x31)) (or (and x109 (not x81)) (or (or (and x70 (not x70)) (and (not x16) x53)) (and x26 (not x87))))) (or (and x17 (not x114)) (or (or (or (and x101 (not x101)) (and (not x53) x16)) (and x83 (not x56))) (and x138 (not x152))))) (or (and (not x150) x142) (or (or (or (and (not x26) x87) (and x56 (not x83))) (and (not x132) x132)) (and x6 (not x82))))))) (or (or (or (or (or (or (or (and x68 (not x7)) (and (not x18) x61)) (and x107 (not x107))) (and x151 (not x65))) (and (not x119) x2)) (or (or (or (and x78 (not x157)) (or (and x7 (not x68)) (or (and x80 (not x80)) (and (not x48) x129)))) (and x154 (not x125))) (or (or (and x86 (not x121)) (or (and (not x61) x18) (or (and x145 (not x145)) (and x48 (not x129))))) (and x92 (not x72))))) (or (and x50 (not x4)) (or (or (and (not x151) x65) (or (and x157 (not x78)) (and (not x86) x121))) (and x88 (not x88))))) (or (and (not x19) x19) (or (and x4 (not x50)) (or (or (and (not x92) x72) (and (not x154) x125)) (and x119 (not x2))))))) (or (or (or (and x10 (not x15)) (or (and x51 (not x51)) (or (or (and (not x67) x24) (and (not x12) x58)) (and (not x30) x52)))) (or (or (or (or (and x67 (not x24)) (or (or (and x54 (not x40)) (and x5 (not x5))) (and x85 (not x32)))) (and (not x155) x126)) (or (and (not x36) x100) (or (or (and (not x124) x96) (or (and x40 (not x54)) (and (not x123) x123))) (and x12 (not x58))))) (or (and (not x147) x140) (or (and x30 (not x52)) (or (or (and x32 (not x85)) (and (not x96) x124)) (and x144 (not x144))))))) (or (or (or (or (and x155 (not x126)) (and x36 (not x100))) (and (not x140) x147)) (and (not x10) x15)) (and x57 (not x57))))) (or (or (or (and (not x43) x28) (or (or (and (not x41) x22) (and x137 (not x133))) (and (not x143) x136))) (and (not x33) x33)) (or (or (or (or (or (and (not x102) x63) (or (or (and (not x131) x106) (and x13 (not x13))) (and x21 (not x9)))) (and (not x137) x133)) (or (and x41 (not x22)) (or (and x44 (not x120)) (or (and (not x55) x128) (or (and (not x106) x131) (and (not x62) x62)))))) (or (and x143 (not x136)) (or (or (and x116 (not x116)) (or (and x9 (not x21)) (and x55 (not x128)))) (and x77 (not x141))))) (or (and x43 (not x28)) (or (and (not x49) x49) (or (and x141 (not x77)) (or (and x102 (not x63)) (and (not x44) x120)))))))) (or (or (or (or (or (or (or (and (not x46) x122) (or (and (not x104) x115) (and x153 (not x153)))) (and (not x108) x103)) (and (not x158) x89)) (or (and x148 (not x113)) (or (and (not x34) x84) (or (or (and (not x42) x42) (and x104 (not x115))) (and (not x47) x60))))) (or (and x135 (not x149)) (or (and x91 (not x23)) (or (or (and (not x122) x46) (and x47 (not x60))) (and x27 (not x27)))))) (or (and x146 (not x105)) (or (and (not x35) x35) (or (or (and (not x84) x34) (and x108 (not x103))) (and x23 (not x91)))))) (or (and (not x90) x90) (or (or (and (not x135) x149) (or (and (not x89) x158) (and (not x148) x113))) (and x105 (not x146)))))))))
(assert (let ((x69 (x20 x95 x29)) (x73 (x20 x74 x29)) (x64 (x20 x95 x98)) (x117 (x20 x98 x95)) (x159 (x20 x98 x98)) (x79 (x20 x29 x37)) (x110 (x20 x98 x74)) (x111 (x20 x29 x29)) (x1 (x20 x29 x98)) (x99 (x20 x74 x37)) (x38 (x20 x37 x37)) (x94 (x20 x74 x95)) (x130 (x20 x98 x29)) (x127 (x20 x74 x98)) (x25 (x20 x29 x95)) (x75 (x20 x29 x74)) (x118 (x20 x37 x29)) (x14 (x20 x95 x37)) (x11 (x20 x98 x37)) (x8 (x20 x37 x74)) (x39 (x20 x74 x74)) (x93 (x20 x95 x74)) (x139 (x20 x37 x95)) (x59 (x20 x37 x98)) (x76 (x20 x95 x95))) (let ((x5 (= x39 x98)) (x42 (= x111 x95)) (x72 (= x93 x29)) (x32 (= x98 x110)) (x23 (= x59 x95)) (x108 (= x8 x95)) (x104 (= x75 x95)) (x113 (= x95 x69)) (x100 (= x98 x25)) (x96 (= x1 x98)) (x40 (= x75 x98)) (x3 (= x74 x76)) (x132 (= x159 x74)) (x101 (= x39 x74)) (x51 (= x38 x98)) (x116 (= x37 x159)) (x61 (= x110 x29)) (x122 (= x127 x95)) (x120 (= x118 x37)) (x60 (= x95 x1)) (x89 (= x94 x95)) (x152 (= x74 x8)) (x143 (= x37 x117)) (x24 (= x8 x98)) (x90 (= x95 x76)) (x77 (= x37 x11)) (x35 (= x38 x95)) (x107 (= x29 x159)) (x155 (= x93 x98)) (x158 (= x93 x95)) (x28 (= x14 x37)) (x36 (= x98 x69)) (x157 (= x118 x29)) (x54 (= x73 x98)) (x31 (= x74 x69)) (x6 (= x11 x74)) (x133 (= x37 x94)) (x4 (= x14 x29)) (x22 (= x37 x69)) (x147 (= x64 x98)) (x115 (= x95 x73)) (x27 (= x95 x159)) (x52 (= x98 x59)) (x57 (= x98 x76)) (x34 (= x118 x95)) (x48 (= x73 x29)) (x109 (= x74 x79)) (x146 (= x139 x95)) (x148 (= x25 x95)) (x138 (= x99 x74)) (x144 (= x98 x159)) (x85 (= x127 x98)) (x87 (= x74 x130)) (x44 (= x79 x37)) (x142 (= x74 x117)) (x154 (= x25 x29)) (x82 (= x74 x59)) (x10 (= x98 x139)) (x128 (= x37 x1)) (x123 (= x98 x111)) (x126 (= x98 x94)) (x56 (= x74 x110)) (x63 (= x99 x37)) (x68 (= x29 x130)) (x7 (= x29 x1)) (x121 (= x8 x29)) (x21 (= x37 x127)) (x105 (= x14 x95)) (x125 (= x29 x69)) (x49 (= x37 x38)) (x134 (= x139 x74)) (x149 (= x95 x64)) (x84 (= x79 x95)) (x86 (= x99 x29)) (x156 (= x74 x25)) (x67 (= x99 x98)) (x26 (= x1 x74)) (x136 (= x37 x64)) (x30 (= x11 x98)) (x150 (= x64 x74)) (x129 (= x75 x29)) (x83 (= x127 x74)) (x2 (= x29 x117)) (x92 (= x94 x29)) (x17 (= x74 x94)) (x145 (= x39 x29)) (x140 (= x117 x98)) (x19 (= x29 x76)) (x80 (= x111 x29)) (x47 (= x130 x95)) (x131 (= x37 x75)) (x13 (= x39 x37)) (x41 (= x37 x25)) (x43 (= x139 x37)) (x106 (= x37 x73)) (x18 (= x29 x127)) (x16 (= x74 x73)) (x66 (= x14 x74)) (x103 (= x95 x99)) (x124 (= x130 x98)) (x70 (= x111 x74)) (x153 (= x95 x39)) (x50 (= x29 x139)) (x135 (= x95 x117)) (x151 (= x29 x11)) (x45 (= x38 x74)) (x119 (= x29 x64)) (x141 (= x37 x59)) (x53 (= x74 x75)) (x58 (= x118 x98)) (x91 (= x95 x11)) (x33 (= x37 x76)) (x62 (= x111 x37)) (x9 (= x37 x110)) (x46 (= x110 x95)) (x78 (= x79 x29)) (x88 (= x29 x38)) (x12 (= x98 x79)) (x65 (= x59 x29)) (x114 (= x74 x93)) (x55 (= x130 x37)) (x81 (= x74 x118)) (x15 (= x98 x14)) (x102 (= x8 x37)) (x137 (= x93 x37))) (and (and (or (or (and x33 x33) (or (or (or (and x137 x133) (and x22 x41)) (and x136 x143)) (and x28 x43))) (or (or (or (or (or (or (and x21 x9) (or (and x131 x106) (and x13 x13))) (and x102 x63)) (and x133 x137)) (or (or (or (or (and x62 x62) (and x106 x131)) (and x128 x55)) (and x120 x44)) (and x22 x41))) (or (or (or (and x116 x116) (or (and x128 x55) (and x21 x9))) (and x77 x141)) (and x136 x143))) (or (and x28 x43) (or (and x49 x49) (or (or (and x63 x102) (and x120 x44)) (and x141 x77)))))) (and (and (or (or (or (or (or (or (and x81 x109) (and x152 x138)) (and x82 x6)) (and x45 x45)) (and x66 x134)) (or (or (or (or (or (and x83 x56) (or (and x101 x101) (and x53 x16))) (and x152 x138)) (and x17 x114)) (or (or (or (or (and x16 x53) (and x70 x70)) (and x87 x26)) (and x109 x81)) (and x31 x156))) (or (or (and x82 x6) (or (or (and x87 x26) (and x83 x56)) (and x132 x132))) (and x142 x150)))) (or (and x3 x3) (or (and x66 x134) (or (or (and x114 x17) (and x31 x156)) (and x142 x150))))) (or (or (and x19 x19) (or (and x4 x50) (or (or (and x154 x125) (and x92 x72)) (and x2 x119)))) (or (or (and x4 x50) (or (and x88 x88) (or (and x65 x151) (or (and x121 x86) (and x78 x157))))) (or (or (or (and x154 x125) (or (or (and x7 x68) (or (and x48 x129) (and x80 x80))) (and x157 x78))) (or (and x92 x72) (or (and x86 x121) (or (or (and x48 x129) (and x145 x145)) (and x61 x18))))) (or (or (or (and x107 x107) (or (and x7 x68) (and x61 x18))) (and x151 x65)) (and x2 x119)))))) (or (or (or (and x15 x10) (or (and x51 x51) (or (or (and x24 x67) (and x12 x58)) (and x52 x30)))) (or (or (or (or (or (or (and x40 x54) (and x123 x123)) (and x96 x124)) (and x12 x58)) (and x36 x100)) (or (and x126 x155) (or (and x67 x24) (or (and x85 x32) (or (and x5 x5) (and x40 x54)))))) (or (and x140 x147) (or (or (or (and x85 x32) (and x124 x96)) (and x144 x144)) (and x30 x52))))) (or (and x57 x57) (or (or (or (and x100 x36) (and x155 x126)) (and x140 x147)) (and x15 x10)))))) (or (or (or (or (or (or (or (or (and x115 x104) (and x153 x153)) (and x46 x122)) (and x103 x108)) (and x158 x89)) (or (and x148 x113) (or (and x34 x84) (or (or (and x115 x104) (and x42 x42)) (and x60 x47))))) (or (and x149 x135) (or (and x91 x23) (or (or (and x60 x47) (and x46 x122)) (and x27 x27))))) (or (or (or (and x91 x23) (or (and x84 x34) (and x108 x103))) (and x35 x35)) (and x105 x146))) (or (and x90 x90) (or (and x105 x146) (or (or (and x113 x148) (and x89 x158)) (and x135 x149)))))))))
(assert (or (or (= x37 (x20 x37 x37)) (or (or (= x29 (x20 x29 x29)) (= (x20 x74 x74) x74)) (= x98 (x20 x98 x98)))) (= x95 (x20 x95 x95))))
(assert (let ((x68 (x20 x95 x29)) (x145 (x20 x37 x29)) (x7 (x20 x29 x74)) (x18 (x20 x98 x74)) (x119 (x20 x29 x95)) (x80 (x20 x29 x29)) (x50 (x20 x37 x95)) (x129 (x20 x98 x29)) (x72 (x20 x37 x37)) (x48 (x20 x74 x29)) (x154 (x20 x98 x37)) (x121 (x20 x74 x98)) (x61 (x20 x74 x74)) (x2 (x20 x74 x95)) (x86 (x20 x98 x98)) (x157 (x20 x95 x74)) (x88 (x20 x29 x37)) (x125 (x20 x74 x37)) (x19 (x20 x95 x95)) (x65 (x20 x37 x98)) (x107 (x20 x37 x74)) (x151 (x20 x95 x98)) (x4 (x20 x98 x95)) (x92 (x20 x95 x37)) (x78 (x20 x29 x98))) (and (and (and (and (and (and (not (= x125 x2)) (and (not (= x121 x2)) (and (and (not (= x61 x2)) (and (not (= x125 x61)) (and (and (and (and (not (= x48 x61)) (not (= x48 x121))) (not (= x125 x48))) (not (= x48 x2))) (not (= x121 x61))))) (not (= x121 x125))))) (and (and (not (= x119 x78)) (and (and (and (and (and (and (not (= x88 x80)) (and (not (= x7 x80)) (not (= x80 x78)))) (not (= x80 x119))) (not (= x7 x78))) (not (= x88 x7))) (not (= x7 x119))) (not (= x78 x88)))) (not (= x119 x88)))) (and (and (and (not (= x86 x154)) (and (and (and (and (not (= x129 x4)) (and (not (= x129 x154)) (and (not (= x86 x129)) (not (= x129 x18))))) (not (= x18 x86))) (not (= x154 x18))) (not (= x4 x18)))) (not (= x4 x86))) (not (= x4 x154)))) (and (not (= x50 x72)) (and (not (= x65 x50)) (and (and (and (and (and (and (not (= x72 x145)) (and (not (= x65 x145)) (not (= x107 x145)))) (not (= x145 x50))) (not (= x107 x65))) (not (= x107 x72))) (not (= x107 x50))) (not (= x65 x72)))))) (and (and (and (not (= x151 x92)) (and (not (= x157 x19)) (and (not (= x92 x157)) (and (not (= x151 x157)) (and (and (not (= x68 x92)) (and (not (= x157 x68)) (not (= x151 x68)))) (not (= x19 x68))))))) (not (= x151 x19))) (not (= x92 x19)))) (and (and (and (and (and (and (not (= x2 x50)) (and (not (= x4 x2)) (and (not (= x19 x119)) (and (not (= x119 x50)) (and (not (= x2 x119)) (not (= x119 x4))))))) (not (= x19 x2))) (not (= x4 x50))) (not (= x19 x4))) (not (= x50 x19))) (and (and (and (and (not (= x151 x86)) (and (and (and (and (and (not (= x151 x78)) (and (not (= x65 x78)) (and (not (= x78 x121)) (not (= x78 x86))))) (not (= x86 x121))) (not (= x121 x65))) (not (= x121 x151))) (not (= x65 x86)))) (not (= x151 x65))) (and (and (and (and (and (and (not (= x61 x107)) (and (and (and (not (= x7 x107)) (and (not (= x61 x7)) (not (= x18 x7)))) (not (= x157 x7))) (not (= x61 x18)))) (not (= x157 x61))) (not (= x18 x107))) (not (= x157 x18))) (not (= x157 x107))) (and (and (and (not (= x145 x129)) (and (not (= x68 x48)) (and (and (and (not (= x80 x68)) (and (not (= x80 x145)) (and (not (= x48 x80)) (not (= x129 x80))))) (not (= x48 x129))) (not (= x48 x145))))) (not (= x129 x68))) (not (= x145 x68))))) (and (not (= x92 x72)) (and (and (not (= x154 x72)) (and (and (not (= x72 x125)) (and (not (= x154 x125)) (and (not (= x92 x88)) (and (not (= x72 x88)) (and (not (= x154 x88)) (not (= x125 x88))))))) (not (= x125 x92)))) (not (= x92 x154)))))))))
(check-sat)
(exit)
